(set-logic QF_NIA)
(set-info :source |
     Constraint systems stating that a matrix interpretation is
     compatible with a rewriting system (weakly compatible with
     all rules, strictly compatible with at least one).

     Contributed by Johannes Waldmann at HTKW Leipzig.
   |)
(set-info :smt-lib-version 2.0)
(set-info :category "crafted")
(set-info :status sat)
(declare-fun n0 () Int)
(assert (>= n0 0))
(declare-fun n1 () Int)
(assert (>= n1 0))
(declare-fun n2 () Int)
(assert (>= n2 0))
(declare-fun n3 () Int)
(assert (>= n3 0))
(declare-fun n4 () Int)
(assert (>= n4 0))
(declare-fun n5 () Int)
(assert (>= n5 0))
(declare-fun n6 () Int)
(assert (>= n6 0))
(declare-fun n7 () Int)
(assert (>= n7 0))
(declare-fun n8 () Int)
(assert (>= n8 0))
(declare-fun n9 () Int)
(assert (>= n9 0))
(declare-fun n10 () Int)
(assert (>= n10 0))
(declare-fun n11 () Int)
(assert (>= n11 0))
(declare-fun n12 () Int)
(assert (>= n12 0))
(declare-fun n13 () Int)
(assert (>= n13 0))
(declare-fun n14 () Int)
(assert (>= n14 0))
(declare-fun n15 () Int)
(assert (>= n15 0))
(declare-fun n16 () Int)
(assert (>= n16 0))
(declare-fun n17 () Int)
(assert (>= n17 0))
(declare-fun n18 () Int)
(assert (>= n18 0))
(declare-fun n19 () Int)
(assert (>= n19 0))
(declare-fun n20 () Int)
(assert (>= n20 0))
(declare-fun n21 () Int)
(assert (>= n21 0))
(declare-fun n22 () Int)
(assert (>= n22 0))
(declare-fun n23 () Int)
(assert (>= n23 0))
(declare-fun n24 () Int)
(assert (>= n24 0))
(declare-fun n25 () Int)
(assert (>= n25 0))
(declare-fun n26 () Int)
(assert (>= n26 0))
(declare-fun n27 () Int)
(assert (>= n27 0))
(declare-fun n28 () Int)
(assert (>= n28 0))
(declare-fun n29 () Int)
(assert (>= n29 0))
(declare-fun n30 () Int)
(assert (>= n30 0))
(declare-fun n31 () Int)
(assert (>= n31 0))
(declare-fun n32 () Int)
(assert (= n32 (* n25 n26)))
(declare-fun n33 () Int)
(assert (= n33 (+ n24 n32)))
(declare-fun n34 () Int)
(assert (= n34 (* n25 n27)))
(declare-fun n35 () Int)
(assert (= n35 (* n11 n26)))
(declare-fun n36 () Int)
(assert (= n36 (+ n10 n35)))
(declare-fun n37 () Int)
(assert (= n37 (* n11 n27)))
(declare-fun n38 () Int)
(assert (= n38 (* n34 n33)))
(declare-fun n39 () Int)
(assert (= n39 (+ n33 n38)))
(declare-fun n40 () Int)
(assert (= n40 (* n34 n34)))
(declare-fun n41 () Int)
(assert (= n41 (* n34 n26)))
(declare-fun n42 () Int)
(assert (= n42 (+ n33 n41)))
(declare-fun n43 () Int)
(assert (= n43 (* n34 n27)))
(declare-fun n44 () Int)
(assert (= n44 (* n25 n33)))
(declare-fun n45 () Int)
(assert (= n45 (+ n24 n44)))
(declare-fun n46 () Int)
(assert (= n46 (* n25 n34)))
(declare-fun n47 () Int)
(assert (= n47 (* n9 n26)))
(declare-fun n48 () Int)
(assert (= n48 (+ n8 n47)))
(declare-fun n49 () Int)
(assert (= n49 (* n9 n27)))
(declare-fun n50 () Int)
(assert (= n50 (* n7 n26)))
(declare-fun n51 () Int)
(assert (= n51 (+ n6 n50)))
(declare-fun n52 () Int)
(assert (= n52 (* n7 n27)))
(declare-fun n53 () Int)
(assert (= n53 (* n17 n26)))
(declare-fun n54 () Int)
(assert (= n54 (+ n16 n53)))
(declare-fun n55 () Int)
(assert (= n55 (* n17 n27)))
(declare-fun n56 () Int)
(assert (= n56 (* n34 n45)))
(declare-fun n57 () Int)
(assert (= n57 (+ n33 n56)))
(declare-fun n58 () Int)
(assert (= n58 (* n34 n46)))
(declare-fun n59 () Int)
(assert (= n59 (* n27 n26)))
(declare-fun n60 () Int)
(assert (= n60 (+ n26 n59)))
(declare-fun n61 () Int)
(assert (= n61 (* n27 n27)))
(declare-fun n62 () Int)
(assert (= n62 (* n19 n57)))
(declare-fun n63 () Int)
(assert (= n63 (+ n18 n62)))
(declare-fun n64 () Int)
(assert (= n64 (* n19 n58)))
(declare-fun n65 () Int)
(assert (= n65 (* n23 n26)))
(declare-fun n66 () Int)
(assert (= n66 (+ n22 n65)))
(declare-fun n67 () Int)
(assert (= n67 (* n23 n27)))
(declare-fun n68 () Int)
(assert (= n68 (* n67 n39)))
(declare-fun n69 () Int)
(assert (= n69 (+ n66 n68)))
(declare-fun n70 () Int)
(assert (= n70 (* n67 n40)))
(declare-fun n71 () Int)
(assert (= n71 (* n5 n26)))
(declare-fun n72 () Int)
(assert (= n72 (+ n4 n71)))
(declare-fun n73 () Int)
(assert (= n73 (* n5 n27)))
(declare-fun n74 () Int)
(assert (= n74 (* n15 n16)))
(declare-fun n75 () Int)
(assert (= n75 (+ n14 n74)))
(declare-fun n76 () Int)
(assert (= n76 (* n15 n17)))
(declare-fun n77 () Int)
(assert (= n77 (* n15 n60)))
(declare-fun n78 () Int)
(assert (= n78 (+ n14 n77)))
(declare-fun n79 () Int)
(assert (= n79 (* n15 n61)))
(declare-fun n80 () Int)
(assert (= n80 (* n17 n16)))
(declare-fun n81 () Int)
(assert (= n81 (+ n16 n80)))
(declare-fun n82 () Int)
(assert (= n82 (* n17 n17)))
(declare-fun n83 () Int)
(assert (= n83 (* n34 n63)))
(declare-fun n84 () Int)
(assert (= n84 (+ n33 n83)))
(declare-fun n85 () Int)
(assert (= n85 (* n34 n64)))
(declare-fun n86 () Int)
(assert (= n86 (* n37 n33)))
(declare-fun n87 () Int)
(assert (= n87 (+ n36 n86)))
(declare-fun n88 () Int)
(assert (= n88 (* n37 n34)))
(declare-fun n89 () Int)
(assert (= n89 (* n37 n26)))
(declare-fun n90 () Int)
(assert (= n90 (+ n36 n89)))
(declare-fun n91 () Int)
(assert (= n91 (* n37 n27)))
(declare-fun n92 () Int)
(assert (= n92 (* n43 n26)))
(declare-fun n93 () Int)
(assert (= n93 (+ n42 n92)))
(declare-fun n94 () Int)
(assert (= n94 (* n43 n27)))
(declare-fun n95 () Int)
(assert (= n95 (* n21 n42)))
(declare-fun n96 () Int)
(assert (= n96 (+ n20 n95)))
(declare-fun n97 () Int)
(assert (= n97 (* n21 n43)))
(declare-fun n98 () Int)
(assert (= n98 (* n55 n26)))
(declare-fun n99 () Int)
(assert (= n99 (+ n54 n98)))
(declare-fun n100 () Int)
(assert (= n100 (* n55 n27)))
(declare-fun n101 () Int)
(assert (= n101 (* n25 n42)))
(declare-fun n102 () Int)
(assert (= n102 (+ n24 n101)))
(declare-fun n103 () Int)
(assert (= n103 (* n25 n43)))
(declare-fun n104 () Int)
(assert (= n104 (* n94 n69)))
(declare-fun n105 () Int)
(assert (= n105 (+ n93 n104)))
(declare-fun n106 () Int)
(assert (= n106 (* n94 n70)))
(declare-fun n107 () Int)
(assert (= n107 (* n11 n33)))
(declare-fun n108 () Int)
(assert (= n108 (+ n10 n107)))
(declare-fun n109 () Int)
(assert (= n109 (* n11 n34)))
(declare-fun n110 () Int)
(assert (= n110 (* n17 n54)))
(declare-fun n111 () Int)
(assert (= n111 (+ n16 n110)))
(declare-fun n112 () Int)
(assert (= n112 (* n17 n55)))
(declare-fun n113 () Int)
(assert (= n113 (* n100 n30)))
(declare-fun n114 () Int)
(assert (= n114 (+ n99 n113)))
(declare-fun n115 () Int)
(assert (= n115 (* n100 n31)))
(declare-fun n116 () Int)
(assert (= n116 (* n112 n16)))
(declare-fun n117 () Int)
(assert (= n117 (+ n111 n116)))
(declare-fun n118 () Int)
(assert (= n118 (* n112 n17)))
(declare-fun n119 () Int)
(assert (= n119 (* n37 n60)))
(declare-fun n120 () Int)
(assert (= n120 (+ n36 n119)))
(declare-fun n121 () Int)
(assert (= n121 (* n37 n61)))
(declare-fun n122 () Int)
(assert (= n122 (* n55 n81)))
(declare-fun n123 () Int)
(assert (= n123 (+ n54 n122)))
(declare-fun n124 () Int)
(assert (= n124 (* n55 n82)))
(declare-fun n125 () Int)
(assert (= n125 (* n124 n117)))
(declare-fun n126 () Int)
(assert (= n126 (+ n123 n125)))
(declare-fun n127 () Int)
(assert (= n127 (* n124 n118)))
(declare-fun n128 () Int)
(assert (= n128 (* n27 n30)))
(declare-fun n129 () Int)
(assert (= n129 (+ n26 n128)))
(declare-fun n130 () Int)
(assert (= n130 (* n27 n31)))
(declare-fun n131 () Int)
(assert (= n131 (* n11 n16)))
(declare-fun n132 () Int)
(assert (= n132 (+ n10 n131)))
(declare-fun n133 () Int)
(assert (= n133 (* n11 n17)))
(assert (>= n132 n10))
(assert (>= n133 n11))
(assert (>= n108 n10))
(assert (>= n109 n11))
(declare-fun n134 () Int)
(assert (= n134 (* n37 n96)))
(declare-fun n135 () Int)
(assert (= n135 (+ n36 n134)))
(declare-fun n136 () Int)
(assert (= n136 (* n37 n97)))
(assert (>= n72 n135))
(assert (>= n73 n136))
(declare-fun n137 () Int)
(assert (= n137 (* n7 n42)))
(declare-fun n138 () Int)
(assert (= n138 (+ n6 n137)))
(declare-fun n139 () Int)
(assert (= n139 (* n7 n43)))
(assert (>= n72 n138))
(assert (>= n73 n139))
(assert (>= n72 n90))
(assert (>= n73 n91))
(declare-fun n140 () Int)
(assert (= n140 (* n11 n105)))
(declare-fun n141 () Int)
(assert (= n141 (+ n10 n140)))
(declare-fun n142 () Int)
(assert (= n142 (* n11 n106)))
(assert (>= n51 n141))
(assert (>= n52 n142))
(declare-fun n143 () Int)
(assert (= n143 (* n121 n69)))
(declare-fun n144 () Int)
(assert (= n144 (+ n120 n143)))
(declare-fun n145 () Int)
(assert (= n145 (* n121 n70)))
(assert (>= n51 n144))
(assert (>= n52 n145))
(declare-fun n146 () Int)
(assert (= n146 (* n49 n39)))
(declare-fun n147 () Int)
(assert (= n147 (+ n48 n146)))
(declare-fun n148 () Int)
(assert (= n148 (* n49 n40)))
(assert (>= n51 n147))
(assert (>= n52 n148))
(assert (>= n51 n87))
(assert (>= n52 n88))
(assert (>= n51 n36))
(assert (>= n52 n37))
(declare-fun n149 () Int)
(assert (= n149 (* n91 n84)))
(declare-fun n150 () Int)
(assert (= n150 (+ n90 n149)))
(declare-fun n151 () Int)
(assert (= n151 (* n91 n85)))
(assert (>= n48 n150))
(assert (>= n49 n151))
(declare-fun n152 () Int)
(assert (= n152 (* n37 n63)))
(declare-fun n153 () Int)
(assert (= n153 (+ n36 n152)))
(declare-fun n154 () Int)
(assert (= n154 (* n37 n64)))
(assert (>= n48 n153))
(assert (>= n49 n154))
(declare-fun n155 () Int)
(assert (= n155 (* n5 n57)))
(declare-fun n156 () Int)
(assert (= n156 (+ n4 n155)))
(declare-fun n157 () Int)
(assert (= n157 (* n5 n58)))
(assert (>= n48 n156))
(assert (>= n49 n157))
(declare-fun n158 () Int)
(assert (= n158 (* n37 n45)))
(declare-fun n159 () Int)
(assert (= n159 (+ n36 n158)))
(declare-fun n160 () Int)
(assert (= n160 (* n37 n46)))
(assert (>= n48 n159))
(assert (>= n49 n160))
(assert (>= n48 n108))
(assert (>= n49 n109))
(assert (>= n48 n36))
(assert (>= n49 n37))
(declare-fun n161 () Int)
(assert (= n161 (* n15 n39)))
(declare-fun n162 () Int)
(assert (= n162 (+ n14 n161)))
(declare-fun n163 () Int)
(assert (= n163 (* n15 n40)))
(assert (>= n75 n162))
(assert (>= n76 n163))
(assert (>= n75 n87))
(assert (>= n76 n88))
(assert (>= n75 n36))
(assert (>= n76 n37))
(declare-fun n164 () Int)
(assert (= n164 (* n15 n102)))
(declare-fun n165 () Int)
(assert (= n165 (+ n14 n164)))
(declare-fun n166 () Int)
(assert (= n166 (* n15 n103)))
(assert (>= n78 n165))
(assert (>= n79 n166))
(declare-fun n167 () Int)
(assert (= n167 (* n11 n42)))
(declare-fun n168 () Int)
(assert (= n168 (+ n10 n167)))
(declare-fun n169 () Int)
(assert (= n169 (* n11 n43)))
(assert (>= n78 n168))
(assert (>= n79 n169))
(assert (>= n78 n90))
(assert (>= n79 n91))
(declare-fun n170 () Int)
(assert (= n170 (* n1 n16)))
(declare-fun n171 () Int)
(assert (= n171 (+ n0 n170)))
(declare-fun n172 () Int)
(assert (= n172 (* n1 n17)))
(assert (>= n171 n0))
(assert (>= n172 n1))
(declare-fun n173 () Int)
(assert (= n173 (* n25 n16)))
(declare-fun n174 () Int)
(assert (= n174 (+ n24 n173)))
(declare-fun n175 () Int)
(assert (= n175 (* n25 n17)))
(declare-fun n176 () Int)
(assert (= n176 (* n100 n24)))
(declare-fun n177 () Int)
(assert (= n177 (+ n99 n176)))
(declare-fun n178 () Int)
(assert (= n178 (* n100 n25)))
(assert (>= n174 n177))
(assert (>= n175 n178))
(assert true)
(assert (>= n34 1))
(assert (>= n45 n24))
(assert (>= n46 n25))
(declare-fun n179 () Int)
(assert (= n179 (* n19 n26)))
(declare-fun n180 () Int)
(assert (= n180 (+ n18 n179)))
(declare-fun n181 () Int)
(assert (= n181 (* n19 n27)))
(declare-fun n182 () Int)
(assert (= n182 (* n34 n96)))
(declare-fun n183 () Int)
(assert (= n183 (+ n33 n182)))
(declare-fun n184 () Int)
(assert (= n184 (* n34 n97)))
(assert (>= n180 n183))
(assert (>= n181 n184))
(declare-fun n185 () Int)
(assert (= n185 (* n21 n26)))
(declare-fun n186 () Int)
(assert (= n186 (+ n20 n185)))
(declare-fun n187 () Int)
(assert (= n187 (* n21 n27)))
(declare-fun n188 () Int)
(assert (= n188 (* n25 n105)))
(declare-fun n189 () Int)
(assert (= n189 (+ n24 n188)))
(declare-fun n190 () Int)
(assert (= n190 (* n25 n106)))
(assert (>= n186 n189))
(assert (>= n187 n190))
(declare-fun n191 () Int)
(assert (= n191 (* n43 n84)))
(declare-fun n192 () Int)
(assert (= n192 (+ n42 n191)))
(declare-fun n193 () Int)
(assert (= n193 (* n43 n85)))
(assert (>= n66 n192))
(assert (>= n67 n193))
(declare-fun n194 () Int)
(assert (= n194 (* n31 n16)))
(declare-fun n195 () Int)
(assert (= n195 (+ n30 n194)))
(declare-fun n196 () Int)
(assert (= n196 (* n31 n17)))
(declare-fun n197 () Int)
(assert (= n197 (* n115 n39)))
(declare-fun n198 () Int)
(assert (= n198 (+ n114 n197)))
(declare-fun n199 () Int)
(assert (= n199 (* n115 n40)))
(assert (>= n195 n198))
(assert (>= n196 n199))
(declare-fun n200 () Int)
(assert (= n200 (* n31 n60)))
(declare-fun n201 () Int)
(assert (= n201 (+ n30 n200)))
(declare-fun n202 () Int)
(assert (= n202 (* n31 n61)))
(declare-fun n203 () Int)
(assert (= n203 (* n130 n102)))
(declare-fun n204 () Int)
(assert (= n204 (+ n129 n203)))
(declare-fun n205 () Int)
(assert (= n205 (* n130 n103)))
(assert (>= n201 n204))
(assert (>= n202 n205))
(declare-fun n206 () Int)
(assert (= n206 (* n29 n16)))
(declare-fun n207 () Int)
(assert (= n207 (+ n28 n206)))
(declare-fun n208 () Int)
(assert (= n208 (* n29 n17)))
(declare-fun n209 () Int)
(assert (= n209 (* n127 n28)))
(declare-fun n210 () Int)
(assert (= n210 (+ n126 n209)))
(declare-fun n211 () Int)
(assert (= n211 (* n127 n29)))
(assert (>= n207 n210))
(assert (>= n208 n211))
(assert (or (> n132 n10) (> n108 n10) (> n72 n135) (> n72 n138) (> n72 n90) (> n51 n141) (> n51 n144) (> n51 n147) (> n51 n87) (> n51 n36) (> n48 n150) (> n48 n153) (> n48 n156) (> n48 n159) (> n48 n108) (> n48 n36) (> n75 n162) (> n75 n87) (> n75 n36) (> n78 n165) (> n78 n168) (> n78 n90) (> n171 n0)))
(check-sat)
(exit)
